c smth
s vc 200 137
197
196
195
192
191
190
188
187
185
184
183
182
179
178
176
175
174
173
172
171
170
168
167
166
161
159
158
157
154
152
151
150
148
147
146
144
143
142
141
140
138
136
135
132
130
129
128
127
125
123
121
120
118
116
115
114
113
112
111
109
107
105
104
102
100
99
98
97
96
94
93
92
90
88
87
86
85
82
80
79
78
77
76
75
74
73
72
71
70
69
68
65
64
61
59
57
56
55
53
52
51
50
49
48
47
46
44
43
42
41
40
39
38
37
36
34
32
30
28
27
26
25
24
22
19
17
15
13
12
10
9
7
6
5
4
2
1